c Lingeling SAT Solver
c 
c Version azf 92032848c138b2f33629ad24394d60a3787a1046
c 
c Copyright (C) 2010-2014 Armin Biere JKU Linz Austria.
c All rights reserved.
c 
c released Don Mai 22 22:08:00 CEST 2014
c compiled Mon Oct  6 05:55:43 PDT 2014
c 
c gcc (Ubuntu 4.8.2-19ubuntu1) 4.8.2
c -Wall -O3 -DNDBLSCR -DNLGLOG -DNDEBUG -DNCHKSOL -DNLGLPICOSAT -DNLGLDRUPLIG
c -DNLGLYALSAT
c Linux ubuntu 3.13.0-32-generic x86_64
c 
c reading input file benchmark-sat/translations/gc-queen6_6-18.cnf
c no embedded options
c found 'p cnf 648 15984' header
c read 648 variables, 15984 clauses, 32544 literals in 0.00 seconds
c 
c  seconds         irredundant          redundant clauses agility   height
c          variables clauses conflicts large ternary binary    glue         MB
c 
c S    0.0     648    15984         0       0      0     0   0  0.0   0.0    0
c 
c  seconds         irredundant          redundant clauses agility   height
c          variables clauses conflicts large ternary binary    glue         MB
c 
s SATISFIABLE
v -1 -2 -3 4 -5 -6 -7 -8 -9 -10 -11 -12 -13 -14 -15 -16 -17 -18 -19 -20 -21 -22
v -23 -24 25 -26 -27 -28 -29 -30 -31 -32 -33 -34 -35 -36 -37 38 -39 -40 -41 -42
v -43 -44 -45 -46 -47 -48 -49 -50 -51 -52 -53 -54 -55 -56 -57 -58 -59 -60 -61 62
v -63 -64 -65 -66 -67 -68 -69 -70 -71 -72 -73 -74 -75 -76 -77 78 -79 -80 -81 -82
v -83 -84 -85 -86 -87 -88 -89 -90 -91 -92 93 -94 -95 -96 -97 -98 -99 -100 -101
v -102 -103 -104 -105 -106 -107 -108 -109 -110 -111 -112 -113 -114 -115 -116
v -117 -118 -119 -120 -121 -122 -123 -124 125 -126 -127 -128 -129 -130 -131 132
v -133 -134 -135 -136 -137 -138 -139 -140 -141 -142 -143 -144 -145 -146 -147
v -148 149 -150 -151 -152 -153 -154 -155 -156 -157 -158 -159 -160 -161 -162 -163
v -164 -165 166 -167 -168 -169 -170 -171 -172 -173 -174 -175 -176 -177 -178 -179
v -180 181 -182 -183 -184 -185 -186 -187 -188 -189 -190 -191 -192 -193 -194 -195
v -196 -197 -198 -199 200 -201 -202 -203 -204 -205 -206 -207 -208 -209 -210 -211
v -212 -213 -214 -215 -216 -217 -218 -219 -220 -221 -222 -223 224 -225 -226 -227
v -228 -229 -230 -231 -232 -233 -234 -235 -236 237 -238 -239 -240 -241 -242 -243
v -244 -245 -246 -247 -248 -249 -250 -251 -252 253 -254 -255 -256 -257 -258 -259
v -260 -261 -262 -263 -264 -265 -266 -267 -268 -269 -270 -271 -272 -273 -274
v -275 276 -277 -278 -279 -280 -281 -282 -283 -284 -285 -286 -287 -288 -289 -290
v -291 -292 -293 -294 -295 -296 -297 -298 -299 -300 -301 302 -303 -304 -305 -306
v -307 -308 -309 310 -311 -312 -313 -314 -315 -316 -317 -318 -319 -320 -321 -322
v -323 -324 325 -326 -327 -328 -329 -330 -331 -332 -333 -334 -335 -336 -337 -338
v -339 -340 -341 -342 -343 344 -345 -346 -347 -348 -349 -350 -351 -352 -353 -354
v -355 -356 -357 -358 -359 -360 -361 -362 -363 -364 -365 -366 -367 -368 -369
v -370 -371 -372 -373 374 -375 -376 -377 -378 -379 -380 -381 -382 383 -384 -385
v -386 -387 -388 -389 -390 -391 -392 -393 -394 -395 -396 -397 -398 399 -400 -401
v -402 -403 -404 -405 -406 -407 -408 -409 -410 -411 -412 -413 -414 -415 -416
v -417 -418 -419 -420 -421 -422 -423 -424 -425 -426 -427 -428 429 -430 -431 -432
v -433 -434 435 -436 -437 -438 -439 -440 -441 -442 -443 -444 -445 -446 -447 -448
v -449 -450 -451 -452 -453 454 -455 -456 -457 -458 -459 -460 -461 -462 -463 -464
v -465 -466 -467 -468 -469 -470 -471 -472 -473 -474 -475 -476 -477 -478 -479
v -480 -481 -482 -483 484 -485 -486 -487 488 -489 -490 -491 -492 -493 -494 -495
v -496 -497 -498 -499 -500 -501 -502 -503 -504 -505 -506 -507 -508 -509 -510
v -511 -512 -513 -514 -515 -516 -517 -518 -519 -520 521 -522 523 -524 -525 -526
v -527 -528 -529 -530 -531 -532 -533 -534 -535 -536 -537 -538 -539 -540 -541
v -542 -543 -544 -545 -546 -547 -548 -549 -550 -551 -552 -553 -554 -555 556 -557
v -558 559 -560 -561 -562 -563 -564 -565 -566 -567 -568 -569 -570 -571 -572 -573
v -574 -575 -576 -577 -578 -579 -580 -581 -582 -583 -584 -585 -586 -587 -588
v -589 -590 -591 -592 593 -594 -595 -596 597 -598 -599 -600 -601 -602 -603 -604
v -605 -606 -607 -608 -609 -610 -611 -612 -613 -614 -615 -616 617 -618 -619 -620
v -621 -622 -623 -624 -625 -626 -627 -628 -629 -630 -631 -632 -633 -634 -635
v -636 -637 638 -639 -640 -641 -642 -643 -644 -645 -646 -647 -648 0
c
c    0.018  96% simplifying
c    0.001   3% search
c ==================================
c    0.019 100% all
c 
c 401 decisions, 21417.5 decisions/sec
c 0 conflicts, 0.0 conflicts/sec
c 613 propagations, 0.0 megaprops/sec
c 0.0 seconds, 0.7 MB
